0 1859
1 1719
2 1673
3 1620
4 1506
5 1506
6 1506
7 1490
8 1490
9 1490
10 1424
11 1424
12 1424
13 1424
14 1416
15 1399
16 1399
17 1241
18 1241
19 1235
20 1235
21 1200
22 1200
23 1198
24 1198
25 1198
26 1160
27 1160
28 1160
29 1145
30 1145
31 1145
32 1145
33 1145
34 1145
35 1144
36 1144
37 1144
38 1144
39 1144
40 1144
41 1144
42 1135
43 1135
44 1135
45 1135
46 1135
47 1135
48 1135
49 1135
50 1135
51 1135
52 1135
53 1135
54 1135
55 1135
56 1135
57 1135
58 1135
59 1135
60 1135
61 1135
62 1135
63 1135
64 1135
65 1135
66 1113
67 1113
68 1113
69 1113
70 1113
71 1113
72 1113
73 1113
74 1113
75 1113
76 1113
77 1113
78 1113
79 1113
80 1113
81 1113
82 1108
83 1108
84 1108
85 1108
86 1108
87 1108
88 1108
89 1108
90 1108
91 1108
92 1108
93 1108
94 1108
95 1108
96 1108
97 1108
98 1108
99 1108
100 1108
101 1108
102 1108
103 1108
104 1108
105 1108
106 1108
107 1108
108 1108
109 1108
110 1108
111 1108
112 1108
113 1108
114 1108
115 1108
116 1108
117 1108
118 1098
119 1098
120 1098
121 1098
122 1098
123 1098
124 1098
125 1098
126 1098
127 1098
128 1098
129 1098
130 1098
131 1098
132 1098
133 1098
134 1098
135 1098
136 1098
137 1098
138 1098
139 1098
140 1098
141 1098
142 1098
143 1098
144 1098
145 1098
146 1088
147 1088
148 1088
149 1088
150 1088
151 1086
152 1086
153 1086
154 1086
155 1086
156 1086
157 1086
158 1082
159 1082
160 1082
161 1082
162 1082
163 1082
164 1082
165 1082
166 1082
167 1082
168 1082
169 1082
170 1078
171 1078
172 1078
173 1078
174 1078
175 1078
176 1078
177 1078
178 1078
179 1078
180 1078
181 1078
182 1076
183 1076
184 1076
185 1076
186 1076
187 1076
188 1076
189 1076
190 1076
191 1076
192 1076
193 1076
194 1076
195 1076
196 1076
197 1076
198 1076
199 1076
200 1076
201 1076
202 1076
203 1076
204 1076
205 1076
206 1076
207 1076
208 1076
209 1076
210 1076
211 1076
212 1076
213 1076
214 1076
215 1076
216 1076
217 1076
218 1076
219 1076
220 1076
221 1076
222 1076
223 1076
224 1076
225 1076
226 1076
227 1076
228 1076
229 1076
230 1076
231 1076
232 1076
233 1076
234 1076
235 1076
236 1076
237 1076
238 1076
239 1076
240 1076
241 1076
242 1076
243 1076
244 1076
245 1076
246 1076
247 1076
248 1076
249 1076
250 1076
251 1076
252 1076
253 1076
254 1076
255 1076
256 1076
257 1076
258 1076
259 1076
260 1076
261 1076
262 1076
263 1076
264 1076
265 1076
266 1076
267 1076
268 1076
269 1076
270 1076
271 1076
272 1076
273 1076
274 1076
275 1076
276 1076
277 1076
278 1076
279 1076
280 1076
281 1076
282 1076
283 1076
284 1076
285 1076
286 1076
287 1076
288 1076
289 1076
290 1076
291 1076
292 1076
293 1076
294 1076
295 1076
296 1076
297 1076
298 1076
299 1076
300 1076
301 1076
302 1076
303 1076
304 1076
305 1076
306 1076
307 1076
308 1076
309 1076
310 1076
311 1076
312 1076
313 1076
314 1076
315 1076
316 1076
317 1076
318 1076
319 1076
320 1076
321 1076
322 1076
323 1076
324 1076
325 1076
326 1076
327 1076
328 1076
329 1076
330 1076
331 1076
332 1076
333 1076
334 1076
335 1076
336 1076
337 1074
338 1074
339 1074
340 1074
341 1074
342 1069
343 1069
344 1069
345 1069
346 1069
347 1069
348 1069
349 1069
350 1069
351 1069
352 1069
353 1069
354 1069
355 1069
356 1069
357 1069
358 1069
359 1069
360 1069
361 1069
362 1069
363 1069
364 1069
365 1069
366 1069
367 1069
368 1069
369 1069
370 1069
371 1069
372 1069
373 1069
374 1069
375 1069
376 1069
377 1069
378 1069
379 1067
380 1067
381 1067
382 1067
383 1067
384 1067
385 1067
386 1067
387 1067
388 1067
389 1067
390 1067
391 1067
392 1067
393 1067
394 1067
395 1067
396 1067
397 1067
398 1067
399 1067
400 1067
401 1067
402 1067
403 1067
404 1067
405 1067
406 1067
407 1067
408 1067
409 1067
410 1067
411 1067
412 1067
413 1067
414 1067
415 1067
416 1067
417 1067
418 1067
419 1067
420 1067
421 1067
422 1067
423 1067
424 1067
425 1067
426 1067
427 1067
428 1067
429 1067
430 1067
431 1067
432 1067
433 1067
434 1067
435 1067
436 1067
437 1067
438 1067
439 1067
440 1067
441 1067
442 1051
443 1051
444 1051
445 1051
446 1051
447 1051
448 1051
449 1051
450 1051
451 1051
452 1051
453 1051
454 1051
455 1051
456 1051
457 1051
458 1046
459 1046
460 1046
461 1046
462 1046
463 1046
464 1046
465 1046
466 1046
467 1046
468 1046
469 1046
470 1046
471 1046
472 1046
473 1046
474 1046
475 1046
476 1046
477 1046
478 1046
479 1046
480 1046
481 1046
482 1046
483 1046
484 1046
485 1046
486 1046
487 1046
488 1046
489 1046
490 1046
491 1046
492 1046
493 1046
494 1046
495 1046
496 1046
497 1046
498 1046
499 1046
500 1046
501 1046
502 1046
503 1046
504 1046
505 1046
506 1046
507 1046
508 1046
509 1046
510 1046
511 1046
512 1046
513 1046
514 1046
515 1046
516 1046
517 1046
518 1046
519 1046
520 1046
521 1046
522 1046
523 1046
524 1046
525 1046
526 1046
527 1046
528 1046
529 1046
530 1046
531 1046
532 1046
533 1046
534 1046
535 1046
536 1046
537 1046
538 1046
539 1046
540 1046
541 1046
542 1046
543 1046
544 1046
545 1046
546 1046
547 1046
548 1046
549 1046
550 1046
551 1046
552 1046
553 1046
554 1046
555 1046
556 1046
557 1046
558 1046
559 1046
560 1046
561 1046
562 1046
563 1046
564 1046
565 1046
566 1046
567 1046
568 1046
569 1046
570 1046
571 1046
572 1046
573 1046
574 1046
575 1046
576 1046
577 1046
578 1046
579 1046
580 1046
581 1046
582 1046
583 1046
584 1046
585 1046
586 1046
587 1046
588 1046
589 1046
590 1046
591 1046
592 1046
593 1046
594 1046
595 1046
596 1046
597 1046
598 1046
599 1046
600 1046
601 1046
602 1046
603 1046
604 1046
605 1046
606 1046
607 1046
608 1046
609 1046
610 1046
611 1046
612 1046
613 1046
614 1046
615 1046
616 1046
617 1046
618 1046
619 1046
620 1046
621 1046
622 1046
623 1046
624 1046
625 1046
626 1046
627 1046
628 1046
629 1046
630 1046
631 1046
632 1046
633 1046
634 1046
635 1046
636 1046
637 1046
638 1046
639 1046
640 1046
641 1046
642 1046
643 1046
644 1046
645 1046
646 1046
647 1046
648 1046
649 1046
650 1046
651 1046
652 1046
653 1046
654 1046
655 1046
656 1046
657 1046
658 1046
659 1046
660 1046
661 1046
662 1046
663 1046
664 1046
665 1046
666 1046
667 1046
668 1046
669 1046
670 1046
671 1046
672 1046
673 1046
674 1046
675 1046
676 1046
677 1046
678 1046
679 1046
680 1046
681 1046
682 1046
683 1046
684 1046
685 1046
686 1046
687 1046
688 1046
689 1046
690 1046
691 1046
692 1046
693 1046
694 1046
695 1046
696 1046
697 1046
698 1046
699 1046
700 1046
701 1046
702 1046
703 1046
704 1046
705 1046
706 1046
707 1046
708 1046
709 1046
710 1046
711 1046
712 1046
713 1046
714 1046
715 1046
716 1046
717 1046
718 1046
719 1046
720 1046
721 1046
722 1046
723 1046
724 1046
725 1046
726 1046
727 1046
728 1046
729 1046
730 1046
731 1046
732 1046
733 1046
734 1046
735 1046
736 1046
737 1046
738 1046
739 1046
740 1046
741 1046
742 1046
743 1046
744 1046
745 1046
746 1046
747 1046
748 1046
749 1046
750 1046
751 1046
752 1046
753 1046
754 1046
755 1046
756 1046
757 1046
758 1046
759 1046
760 1046
761 1046
762 1046
763 1046
764 1046
765 1046
766 1046
767 1046
768 1046
769 1046
770 1046
771 1046
772 1046
773 1046
774 1046
775 1046
776 1046
777 1046
778 1046
779 1046
780 1046
781 1046
782 1046
783 1046
784 1046
785 1046
786 1046
787 1046
788 1046
789 1046
790 1046
791 1046
792 1046
793 1046
794 1046
795 1046
796 1046
797 1046
798 1046
799 1046
800 1046
801 1046
802 1046
803 1046
804 1046
805 1046
806 1046
807 1046
808 1046
809 1046
810 1046
811 1046
812 1046
813 1046
814 1046
815 1046
816 1046
817 1046
818 1046
819 1046
820 1046
821 1046
822 1046
823 1046
824 1046
825 1046
826 1046
827 1046
828 1046
829 1046
830 1046
831 1046
832 1046
833 1046
834 1046
835 1046
836 1046
837 1046
838 1046
839 1046
840 1046
841 1046
842 1046
843 1046
844 1046
845 1046
846 1046
847 1046
848 1046
849 1046
850 1046
851 1046
852 1046
853 1046
854 1046
855 1046
856 1046
857 1046
858 1046
859 1046
860 1046
861 1046
862 1046
863 1046
864 1046
865 1046
866 1046
867 1046
868 1046
869 1046
870 1046
871 1046
872 1046
873 1046
874 1046
875 1046
876 1046
877 1046
878 1046
879 1046
880 1046
881 1046
882 1046
883 1046
884 1046
885 1046
886 1046
887 1046
888 1046
889 1046
890 1046
891 1046
892 1046
893 1046
894 1046
895 1046
896 1046
897 1046
898 1046
899 1046
900 1046
901 1046
902 1046
903 1046
904 1046
905 1046
906 1046
907 1046
908 1046
909 1046
910 1046
911 1046
912 1046
913 1046
914 1046
915 1046
916 1046
917 1046
918 1046
919 1046
920 1046
921 1046
922 1046
923 1046
924 1046
925 1046
926 1046
927 1046
928 1046
929 1046
930 1046
931 1046
932 1046
933 1046
934 1046
935 1046
936 1046
937 1046
938 1046
939 1046
940 1046
941 1046
942 1046
943 1046
944 1046
945 1046
946 1046
947 1046
948 1046
949 1046
950 1046
951 1046
952 1046
953 1046
954 1046
955 1046
956 1046
957 1046
958 1046
959 1046
960 1046
961 1046
962 1046
963 1046
964 1046
965 1046
966 1046
967 1046
968 1046
969 1046
970 1046
971 1046
972 1046
973 1046
974 1046
975 1046
976 1046
977 1046
978 1046
979 1046
980 1046
981 1046
982 1046
983 1046
984 1046
985 1046
986 1046
987 1046
988 1046
989 1046
990 1046
991 1046
992 1046
993 1046
994 1046
995 1046
996 1046
997 1046
998 1046
999 1046
Best: [[31,17,27,25,15,7,4,3],
       [21,6,11,30,23,10,9,29,24,18,22],
       [8,14,20,32,2,13],
       [26,16,12,5,19,28]], fitness: 1046
